100
128
33
18
7
2
52
4
11
2
47
42
61
20
19
32
28
36
28
64
26
47
26
29
1
1
40
20
37
42
21
20
36
28
62
62
51
31
27
30
59
64
32
38
36
47
45
53
47
32
11
47
20
44
17
17
14
43
25
27
33
18
42
47
19
54
28
52
32
4
44
42
9
49
28
48
19
53
20
40
25
41
36
22
3
22
44
37
64
21
42
23
32
60
63
64
39
28
61
36
64
63